325 624
2 1 4
37 1 -4
147 1 -4
148 1 4
145 2 -4
164 2 -4
277 2 4
168 3 -4
185 3 4
256 3 4
283 3 -4
5 4 4
98 4 -4
235 4 4
325 4 -4
14 5 -4
99 5 -4
324 5 4
7 6 4
160 6 -4
270 6 -4
302 6 4
104 7 -4
106 7 -4
217 7 4
18 8 -4
98 8 4
258 8 4
288 8 -4
10 9 4
20 9 4
26 9 -4
142 9 -4
67 10 -4
12 11 4
13 11 -4
43 11 4
244 11 -4
38 12 4
103 12 -4
104 12 -4
52 13 4
108 13 -4
268 13 4
185 14 -4
285 14 4
322 14 4
100 15 4
157 15 -4
17 16 4
31 16 -4
201 16 4
272 16 -4
35 17 -4
109 17 -4
305 17 4
54 18 4
208 18 4
318 18 -4
168 19 -4
288 19 -4
289 19 4
319 19 4
51 20 4
102 20 -4
143 20 -4
22 21 4
28 21 4
105 21 -4
161 21 -4
51 22 -4
174 22 -4
215 22 4
24 23 4
163 23 -4
221 23 4
246 23 -4
35 24 4
107 24 -4
162 24 -4
201 25 -4
203 25 4
221 25 4
224 25 -4
47 26 4
158 26 -4
292 26 4
47 27 -4
90 27 4
101 27 4
158 27 -4
101 28 -4
243 28 4
269 28 -4
133 29 4
217 29 4
243 29 -4
272 29 -4
31 30 -4
41 30 4
249 30 4
252 30 -4
64 31 4
179 31 4
100 32 -4
116 32 4
174 32 -4
262 32 4
93 33 4
103 33 4
116 33 -4
143 33 -4
73 34 4
103 34 -4
143 34 -4
177 34 4
38 35 4
218 35 -4
163 36 -4
223 36 4
275 36 4
278 36 -4
49 37 4
223 37 4
226 37 -4
196 38 -4
198 38 -4
146 39 -4
251 39 4
306 39 4
309 39 -4
41 40 -4
45 40 4
165 40 -4
251 40 4
87 41 4
179 41 -4
79 42 4
167 42 -4
228 42 -4
285 42 4
199 43 -4
272 43 -4
300 43 4
86 44 -4
145 44 4
272 44 4
273 44 -4
113 45 -4
126 45 4
136 45 -4
75 46 4
150 46 -4
206 46 -4
258 46 4
105 47 -4
264 47 4
92 48 -4
246 48 4
247 48 -4
306 48 4
117 49 -4
122 49 4
149 49 -4
70 50 4
137 50 -4
182 50 -4
230 50 4
240 51 4
296 51 -4
91 52 -4
296 52 4
299 52 -4
121 53 4
148 53 -4
202 53 4
276 53 -4
127 54 -4
167 54 -4
286 54 4
111 55 4
175 55 -4
214 55 4
266 55 -4
125 56 4
135 56 -4
222 56 4
250 56 -4
83 57 -4
143 57 4
192 57 -4
295 57 4
216 58 4
244 58 -4
267 58 -4
302 58 4
78 59 -4
82 59 4
221 59 4
304 59 -4
63 60 4
123 60 4
129 60 -4
138 60 -4
67 61 -4
158 61 4
238 61 -4
265 61 4
78 62 4
164 62 -4
201 62 4
273 62 -4
66 63 4
128 63 -4
151 63 -4
146 64 -4
200 64 4
247 64 -4
253 65 4
308 65 4
309 65 -4
312 65 -4
70 66 4
138 66 -4
286 66 -4
131 67 4
293 67 4
163 68 4
164 68 -4
223 68 -4
277 68 4
277 69 4
278 69 -4
279 69 4
280 69 -4
257 70 -4
259 70 -4
79 71 4
138 71 -4
168 71 4
169 71 -4
192 72 4
292 72 -4
91 73 -4
293 73 4
294 73 -4
88 74 -4
251 74 4
252 74 -4
311 74 4
151 75 4
229 75 -4
231 75 -4
213 76 4
262 76 -4
94 77 -4
159 77 4
263 77 4
264 77 -4
81 78 4
245 78 -4
207 79 -4
208 79 -4
238 80 4
239 80 -4
217 81 4
218 81 -4
220 81 -4
179 82 4
305 82 -4
307 82 -4
84 83 4
85 83 4
264 83 -4
291 84 -4
292 85 -4
202 86 4
274 86 4
276 86 -4
88 87 4
203 87 -4
280 87 -4
205 88 4
254 88 -4
262 89 -4
291 89 4
91 90 4
216 90 -4
241 90 -4
295 91 4
222 92 4
248 92 4
250 92 -4
94 93 4
241 93 -4
267 93 -4
265 94 4
297 94 -4
96 95 4
261 95 -4
97 96 -4
323 96 4
324 96 -4
325 97 4
99 98 -4
233 98 -4
186 99 -4
230 99 4
111 100 -4
156 100 -4
175 101 -4
298 101 -4
131 102 4
132 102 -4
173 102 -4
298 103 -4
159 104 -4
266 104 4
108 105 -4
112 105 -4
160 106 -4
176 106 -4
296 106 4
242 107 4
246 107 -4
269 107 -4
160 108 -4
194 108 -4
219 109 -4
268 109 4
301 109 -4
114 110 -4
325 110 -4
112 111 -4
157 111 -4
132 112 -4
266 112 4
180 113 -4
203 113 -4
277 113 4
115 114 -4
139 114 4
153 114 -4
119 115 -4
294 116 4
296 116 4
204 117 -4
224 117 -4
308 117 4
127 118 -4
137 118 -4
165 118 4
204 118 -4
120 119 -4
128 119 4
170 119 -4
123 120 -4
165 121 -4
225 121 -4
252 121 -4
137 122 -4
150 122 -4
225 122 -4
124 123 -4
189 123 -4
129 124 -4
180 125 -4
253 125 -4
278 125 -4
150 126 -4
167 126 -4
253 126 -4
313 127 -4
317 127 4
140 128 -4
152 128 -4
130 129 -4
210 129 -4
140 130 -4
193 132 -4
239 132 4
134 133 -4
144 133 -4
198 133 -4
145 134 -4
163 134 -4
220 134 4
204 135 -4
279 135 -4
309 135 -4
167 136 -4
182 136 -4
279 136 -4
183 137 -4
139 138 -4
154 139 -4
169 139 -4
141 140 -4
234 140 -4
154 141 -4
192 142 -4
146 144 -4
219 144 -4
249 144 4
147 145 -4
147 146 -4
251 147 -4
225 148 -4
311 148 -4
182 149 -4
206 149 -4
311 149 -4
317 150 -4
152 151 -4
320 151 -4
153 152 -4
187 152 -4
171 153 -4
188 153 -4
155 154 -4
323 154 -4
171 155 -4
213 156 -4
237 157 -4
263 157 4
159 158 -4
177 159 -4
242 160 4
177 161 -4
197 161 -4
242 161 -4
164 162 -4
199 162 -4
275 162 4
166 165 -4
206 166 -4
228 166 -4
312 166 4
183 168 -4
170 169 -4
208 169 -4
190 170 -4
209 170 -4
172 171 -4
290 171 -4
190 172 -4
238 173 -4
176 174 -4
263 174 4
193 175 -4
195 175 4
195 176 -4
265 176 4
178 177 -4
195 178 -4
217 178 -4
268 178 4
308 179 4
181 180 -4
313 180 -4
228 181 -4
255 181 -4
280 181 4
184 182 -4
186 183 -4
316 183 -4
186 184 -4
255 184 -4
319 184 4
187 185 4
317 185 4
187 186 -4
188 187 -4
189 188 -4
231 188 -4
211 189 -4
232 189 -4
191 190 -4
324 190 -4
211 191 -4
293 192 -4
194 193 -4
293 193 4
215 194 -4
295 194 4
196 195 -4
215 196 -4
300 196 4
198 197 -4
241 197 4
270 197 -4
200 198 -4
244 199 -4
274 199 4
271 200 -4
274 200 -4
202 201 4
203 202 -4
205 204 -4
255 205 -4
282 205 -4
207 206 -4
282 207 -4
319 207 -4
209 208 -4
210 209 -4
259 209 -4
235 210 -4
260 210 -4
212 211 -4
233 211 4
235 212 -4
214 213 -4
263 213 -4
291 214 -4
295 214 -4
216 215 -4
218 216 -4
298 218 4
248 219 4
270 219 -4
248 220 -4
303 220 -4
222 221 4
224 222 -4
310 223 4
310 224 -4
227 225 -4
227 226 -4
310 226 -4
313 226 -4
282 227 -4
315 227 -4
229 228 -4
285 229 -4
315 229 -4
231 230 4
284 230 -4
232 231 -4
234 232 -4
287 232 -4
261 233 -4
288 233 -4
261 234 -4
289 234 -4
236 235 -4
261 236 -4
239 237 -4
240 238 -4
240 239 -4
265 240 -4
243 241 -4
245 242 4
245 243 -4
247 244 4
247 245 -4
302 246 -4
275 248 4
250 249 4
274 249 4
252 250 -4
254 253 -4
256 254 -4
315 254 -4
257 255 -4
257 256 -4
281 256 -4
258 257 -4
259 258 4
260 259 -4
321 260 -4
323 260 -4
264 262 -4
297 266 4
269 267 -4
297 267 -4
271 268 4
271 269 -4
273 270 4
273 271 -4
276 275 4
278 276 -4
281 279 -4
281 280 -4
283 281 -4
284 282 -4
284 283 -4
314 283 -4
286 284 -4
287 285 4
287 286 -4
289 287 -4
290 288 4
290 289 -4
325 290 -4
294 291 -4
294 292 -4
299 297 -4
301 298 -4
300 299 -4
301 299 -4
303 300 4
303 301 -4
304 302 4
304 303 -4
305 304 -4
306 305 -4
307 306 4
308 307 -4
309 307 -4
312 310 -4
314 311 -4
314 312 -4
316 313 -4
316 314 -4
318 315 -4
318 316 -4
320 317 4
320 318 -4
321 319 4
321 320 -4
322 321 -4
323 322 -4
324 322 -4
228
98 2
99 2
100 2
101 2
102 2
103 2
104 2
105 4
106 2
107 2
108 4
109 2
110 2
111 2
112 2
113 2
114 2
115 2
116 -2
117 2
118 2
119 2
120 2
121 2
122 2
123 2
124 2
125 2
126 2
127 2
128 2
129 4
130 2
131 -2
132 2
133 2
134 2
135 4
136 4
137 4
138 4
139 2
140 4
141 2
142 2
143 2
144 2
145 2
146 4
147 4
148 2
149 4
150 4
151 2
152 4
153 4
154 4
155 2
156 2
157 2
158 2
159 2
160 2
161 4
162 2
163 2
164 4
165 2
166 2
167 4
168 2
169 4
170 4
171 4
172 2
173 2
174 2
175 2
176 2
177 2
178 2
179 -2
180 4
181 2
182 4
183 4
184 2
185 -2
186 4
187 2
188 4
189 4
190 4
191 2
192 2
193 2
194 2
195 2
196 2
197 2
198 4
199 2
200 2
201 -2
202 -2
203 2
204 4
205 2
206 4
207 4
208 2
209 4
210 4
211 2
212 2
213 2
214 2
215 2
216 2
217 -2
218 2
219 2
220 2
221 -4
222 -2
223 -2
224 4
225 4
226 4
227 4
228 4
229 4
230 -2
231 2
232 4
233 2
234 4
235 2
236 2
237 2
238 2
239 2
240 2
241 2
242 -2
243 2
244 2
245 2
246 2
247 2
248 -2
249 -4
250 2
251 -2
252 4
253 2
254 4
255 4
256 2
257 4
258 -2
259 2
260 4
261 4
262 2
263 -2
264 2
265 -2
266 -2
267 4
268 -4
269 4
270 2
271 2
272 2
273 2
274 -2
275 -4
276 2
277 -4
278 4
279 2
280 2
281 4
282 4
283 4
284 4
285 -2
286 2
287 2
288 2
289 2
290 2
291 2
292 2
293 -2
294 2
295 -2
296 -2
297 2
298 2
299 4
300 -2
301 4
302 -2
303 2
304 2
305 2
306 -2
307 2
308 -2
309 4
310 2
311 2
312 2
313 4
314 4
315 4
316 4
317 -2
318 4
319 -2
320 2
321 2
322 2
323 2
324 2
325 2
